c FILE /home/rafael/Documents/HappySet/MIHS/inputs/happygen/output/graph_d_regular_k5_p0.5_v50_20241127_082638.txt
c SOURCE This is a d-regular graph formed for the happy graph colouring problem.
c DESCRIPTION It was generated using the problem generator of Rhyd Lewis
c
c GRAPH STATS
c Seed                             = 408115252
c Number of Nodes                  = 50
c Number of colours k              = 5
c Number of pre-assignments        = 25
c Degree of all vertices           = 6
c Density                          = 0.122449
c 
c The degrees of nodes 1 to 50, respectively, are as follows 
c [6, 6, 6, 6, 6, 6, 6, 6, 6, 6, 6, 6, 6, 6, 6, 6, 6, 6, 6, 6, 6, 6, 6, 6, 6, 6, 
c  6, 6, 6, 6, 6, 6, 6, 6, 6, 6, 6, 6, 6, 6, 6, 6, 6, 6, 6, 6, 6, 6, 6, 6] 
c  
p edge 50 150 5
e 1 8
e 1 21
e 1 24
e 1 33
e 1 37
e 1 43
e 2 5
e 2 13
e 2 20
e 2 35
e 2 42
e 2 50
e 3 7
e 3 9
e 3 20
e 3 26
e 3 41
e 3 46
e 4 5
e 4 16
e 4 19
e 4 25
e 4 44
e 4 45
e 5 8
e 5 9
e 5 15
e 5 33
e 6 12
e 6 14
e 6 37
e 6 40
e 6 43
e 6 50
e 7 11
e 7 12
e 7 24
e 7 47
e 7 50
e 8 9
e 8 13
e 8 26
e 8 29
e 9 45
e 9 46
e 9 48
e 10 11
e 10 13
e 10 28
e 10 39
e 10 40
e 10 46
e 11 17
e 11 18
e 11 23
e 11 28
e 12 27
e 12 31
e 12 42
e 12 43
e 13 23
e 13 27
e 13 40
e 14 32
e 14 33
e 14 41
e 14 48
e 14 49
e 15 19
e 15 26
e 15 29
e 15 38
e 15 41
e 16 17
e 16 19
e 16 20
e 16 22
e 16 34
e 17 21
e 17 32
e 17 36
e 17 43
e 18 22
e 18 30
e 18 32
e 18 43
e 18 46
e 19 26
e 19 36
e 19 38
e 20 34
e 20 35
e 20 36
e 21 23
e 21 36
e 21 37
e 21 42
e 22 25
e 22 41
e 22 47
e 22 50
e 23 45
e 23 49
e 23 50
e 24 28
e 24 36
e 24 44
e 24 48
e 25 27
e 25 31
e 25 38
e 25 44
e 26 31
e 26 39
e 27 28
e 27 35
e 27 49
e 28 39
e 28 48
e 29 30
e 29 32
e 29 34
e 29 45
e 30 37
e 30 38
e 30 41
e 30 47
e 31 34
e 31 40
e 31 44
e 32 41
e 32 47
e 33 37
e 33 38
e 33 40
e 34 42
e 34 47
e 35 39
e 35 44
e 35 47
e 36 49
e 37 49
e 38 39
e 39 50
e 40 46
e 42 45
e 42 48
e 43 49
e 44 45
e 46 48
n 1 3
n 2 3
n 3 3
n 4 3
n 6 3
n 7 3
n 8 3
n 9 3
n 12 3
n 13 3
n 14 3
n 15 5
n 17 4
n 18 2
n 22 2
n 23 3
n 28 1
n 30 2
n 31 3
n 33 3
n 34 3
n 36 4
n 39 1
n 42 3
n 45 3
